problem_generation/data/GISP/train/er_n=66_m=1302_p=0.60_SET2_setparam=100.00_alpha=0.50_479.lp
maximize
OBJ:100x0 + 100x1 + 100x2 + 100x3 + 100x4 + 100x5 + 100x6 + 100x7 + 100x8 + 100x9 + 100x10 + 100x11 + 100x12 + 100x13 + 100x14 + 100x15 + 100x16 + 100x17 + 100x18 + 100x19 + 100x20 + 100x21 + 100x22 + 100x23 + 100x24 + 100x25 + 100x26 + 100x27 + 100x28 + 100x29 + 100x30 + 100x31 + 100x32 + 100x33 + 100x34 + 100x35 + 100x36 + 100x37 + 100x38 + 100x39 + 100x40 + 100x41 + 100x42 + 100x43 + 100x44 + 100x45 + 100x46 + 100x47 + 100x48 + 100x49 + 100x50 + 100x51 + 100x52 + 100x53 + 100x54 + 100x55 + 100x56 + 100x57 + 100x58 + 100x59 + 100x60 + 100x61 + 100x62 + 100x63 + 100x64 + 100x65 - y15_21 - y36_53 - y47_53 - y47_62 - y18_44 - y8_9 - y29_41 - y6_48 - y40_50 - y40_59 - y21_64 - y33_47 - y2_41 - y44_56 - y2_50 - y25_52 - y51_64 - y3_33 - y14_33 - y22_46 - y13_65 - y3_42 - y14_42 - y14_51 - y15_25 - y17_44 - y7_21 - y18_21 - y17_53 - y9_49 - y9_58 - y29_45 - y21_41 - y29_54 - y21_50 - y29_63 - y25_29 - y10_40 - y25_38 - y2_45 - y25_47 - y22_23 - y43_55 - y14_28 - y32_64 - y43_64 - y16_56 - y36_43 - y17_39 - y47_61 - y9_53 - y5_64 - y9_62 - y21_36 - y29_49 - y21_54 - y10_26 - y62_64 - y2_22 - y54_60 - y12_63 - y25_42 - y2_49 - y43_50 - y51_63 - y3_23 - y1_53 - y13_55 - y24_55 - y17_25 - y7_11 - y36_47 - y17_43 - y28_43 - y9_39 - y5_50 - y28_52 - y36_65 - y9_48 - y47_65 - y28_61 - y21_22 - y50_58 - y6_33 - y29_35 - y21_40 - y6_51 - y21_49 - y10_12 - y2_8 - y39_57 - y20_53 - y20_62 - y10_39 - y2_35 - y32_36 - y3_9 - y43_45 - y24_41 - y35_41 - y14_18 - y16_37 - y43_54 - y13_50 - y24_59 - y16_64 - y17_29 - y9_25 - y5_54 - y6_19 - y17_56 - y5_63 - y9_61 - y50_62 - y42_58 - y39_43 - y39_52 - y2_12 - y20_48 - y31_48 - y2_21 - y20_57 - y12_62 - y13_27 - y23_62 - y3_4 - y24_27 - y35_36 - y32_49 - y1_43 - y13_45 - y32_58 - y35_54 - y16_50 - y1_61 - y5_22 - y17_33 - y28_33 - y28_42 - y5_49 - y9_47 - y5_58 - y27_55 - y6_32 - y30_60 - y0_56 - y11_56 - y20_34 - y31_34 - y10_11 - y11_65 - y2_7 - y20_43 - y31_43 - y31_52 - y12_48 - y12_57 - y24_31 - y4_62 - y43_53 - y16_36 - y1_47 - y13_49 - y5_8 - y35_58 - y5_17 - y1_65 - y57_64 - y38_60 - y49_60 - y5_35 - y17_37 - y27_41 - y50_52 - y19_46 - y30_55 - y8_64 - y19_64 - y20_29 - y39_42 - y23_25 - y31_38 - y2_11 - y31_47 - y23_43 - y20_56 - y12_52 - y4_57 - y13_35 - y16_31 - y1_42 - y37_63 - y16_49 - y46_50 - y9_10 - y49_55 - y5_30 - y49_64 - y5_39 - y18_58 - y27_36 - y19_32 - y0_37 - y11_37 - y8_59 - y20_33 - y0_64 - y12_38 - y1_19 - y45_62 - y3_65 - y14_65 - y38_41 - y5_16 - y49_50 - y46_63 - y57_63 - y26_57 - y18_53 - y18_62 - y50_51 - y19_45 - y30_45 - y42_47 - y60_64 - y0_59 - y11_59 - y41_60 - y4_20 - y23_33 - y44_65 - y23_42 - y1_14 - y13_16 - y4_47 - y34_48 - y45_48 - y1_23 - y24_25 - y56_57 - y37_53 - y15_43 - y38_45 - y57_58 - y15_52 - y26_52 - y38_54 - y15_61 - y7_57 - y0_18 - y30_31 - y27_44 - y27_53 - y8_49 - y30_58 - y20_23 - y4_6 - y11_54 - y20_32 - y41_64 - y52_64 - y22_50 - y45_52 - y3_46 - y45_61 - y56_61 - y38_40 - y15_47 - y18_52 - y8_17 - y26_65 - y27_30 - y11_13 - y48_62 - y0_22 - y11_22 - y29_58 - y30_35 - y0_31 - y8_44 - y12_23 - y41_59 - y44_55 - y44_64 - y25_60 - y1_13 - y3_32 - y34_47 - y37_43 - y3_50 - y56_65 - y7_29 - y15_51 - y7_47 - y18_47 - y40_53 - y11_26 - y11_35 - y33_41 - y33_50 - y10_57 - y33_59 - y2_53 - y3_45 - y22_58 - y7_15 - y26_37 - y26_46 - y8_16 - y29_57 - y40_57 - y21_53 - y11_30 - y33_36 - y25_32 - y4_9 - y10_43 - y33_45 - y2_39 - y25_41 - y52_58 - y25_50 - y3_13 - y2_57 - y3_22 - y3_40 - y3_49 - y36_46 - y15_23 - y55_59 - y18_19 - y26_32 - y17_51 - y36_64 - y7_37 - y9_65 - y21_39 - y6_50 - y21_57 - y10_29 - y33_40 - y25_36 - y10_47 - y2_43 - y51_57 - y3_17 - y32_53 - y3_26 - y14_26 - y32_62 - y24_58 - y43_62 - y14_44 - y7_14 - y47_50 - y55_63 - y28_46 - y7_23 - y36_59 - y17_55 - y9_51 - y5_62 - y28_64 - y9_60 - y48_51 - y40_47 - y2_20 - y20_65 - y10_42 - y25_40 - y10_51 - y2_56 - y43_57 - y24_53 - y35_62 - y17_41 - y28_59 - y6_31 - y21_29 - y6_40 - y40_42 - y21_38 - y2_15 - y10_28 - y32_34 - y23_65 - y32_43 - y35_39 - y3_16 - y51_65 - y13_48 - y24_48 - y3_25 - y16_44 - y32_61 - y13_57 - y17_18 - y1_64 - y17_27 - y17_36 - y28_36 - y5_43 - y9_41 - y17_54 - y6_17 - y58_64 - y9_59 - y21_24 - y50_60 - y6_44 - y42_65 - y10_14 - y39_50 - y20_46 - y10_32 - y31_64 - y12_60 - y13_34 - y24_34 - y3_11 - y1_41 - y13_43 - y35_52 - y16_48 - y13_61 - y24_61 - y35_61 - y16_57 - y17_31 - y5_38 - y28_40 - y9_36 - y28_49 - y6_12 - y6_21 - y9_54 - y27_62 - y50_64 - y0_63 - y39_45 - y20_41 - y39_54 - y20_50 - y2_23 - y20_59 - y54_61 - y12_55 - y51_55 - y1_36 - y35_38 - y1_45 - y13_47 - y24_47 - y35_56 - y46_53 - y1_63 - y9_13 - y17_26 - y36_39 - y38_58 - y17_35 - y9_31 - y5_42 - y6_7 - y5_51 - y50_59 - y19_53 - y30_62 - y0_58 - y39_40 - y20_36 - y23_32 - y2_9 - y12_41 - y54_56 - y12_50 - y13_15 - y23_50 - y4_46 - y31_63 - y12_59 - y1_22 - y23_59 - y4_55 - y46_48 - y5_19 - y38_53 - y5_28 - y28_30 - y9_26 - y15_60 - y26_60 - y7_65 - y18_65 - y6_20 - y8_48 - y42_59 - y20_22 - y0_53 - y20_31 - y0_62 - y23_27 - y20_49 - y4_32 - y12_54 - y13_19 - y53_55 - y4_50 - y34_60 - y56_60 - y37_65 - y46_52 - y9_21 - y26_55 - y49_57 - y8_34 - y27_47 - y8_43 - y27_56 - y11_39 - y8_52 - y30_52 - y0_48 - y30_61 - y20_26 - y12_22 - y4_18 - y23_31 - y20_44 - y31_44 - y1_3 - y4_36 - y34_46 - y1_21 - y4_54 - y16_19 - y1_30 - y37_51 - y1_39 - y5_9 - y26_41 - y9_16 - y46_65 - y26_59 - y8_20 - y19_29 - y11_25 - y8_38 - y11_43 - y20_21 - y52_53 - y20_30 - y41_62 - y31_39 - y33_58 - y44_58 - y23_35 - y25_63 - y4_40 - y34_41 - y53_54 - y22_48 - y34_50 - y45_50 - y37_46 - y34_59 - y45_59 - y37_55 - y26_45 - y18_41 - y49_56 - y8_15 - y27_28 - y11_20 - y40_65 - y19_42 - y30_42 - y19_51 - y11_47 - y20_25 - y60_61 - y41_57 - y44_53 - y23_30 - y25_49 - y4_26 - y10_60 - y1_2 - y4_35 - y22_43 - y1_20 - y53_58 - y14_48 - y37_50 - y15_31 - y26_31 - y7_36 - y7_45 - y15_58 - y18_54 - y27_32 - y8_28 - y29_60 - y8_37 - y19_37 - y30_37 - y0_42 - y11_42 - y41_43 - y33_39 - y41_52 - y60_65 - y25_44 - y4_21 - y10_55 - y34_40 - y37_45 - y56_58 - y3_52 - y14_61 - y55_62 - y59_60 - y29_46 - y8_23 - y6_53 - y29_55 - y40_55 - y29_64 - y40_64 - y41_47 - y25_30 - y4_7 - y4_16 - y33_52 - y41_65 - y2_46 - y52_65 - y10_59 - y44_61 - y3_20 - y14_20 - y34_35 - y37_40 - y22_51 - y3_47
 Subject to
C1: x0+x3 <=1 
C2: x0+x4 <=1 
C3: x0+x7 <=1 
C4: x0+x9 <=1 
C5: x0+x10 <=1 
C6: x0+x11 <=1 
C7: x0+x13 <=1 
C8: x0+x18-y0_18 <=1 
C9: x0+x22-y0_22 <=1 
C10: x0+x26 <=1 
C11: x0+x31-y0_31 <=1 
C12: x0+x32 <=1 
C13: x0+x33 <=1 
C14: x0+x34 <=1 
C15: x0+x36 <=1 
C16: x0+x37-y0_37 <=1 
C17: x0+x38 <=1 
C18: x0+x39 <=1 
C19: x0+x40 <=1 
C20: x0+x42-y0_42 <=1 
C21: x0+x43 <=1 
C22: x0+x44 <=1 
C23: x0+x45 <=1 
C24: x0+x48-y0_48 <=1 
C25: x0+x49 <=1 
C26: x0+x50 <=1 
C27: x0+x51 <=1 
C28: x0+x52 <=1 
C29: x0+x53-y0_53 <=1 
C30: x0+x56-y0_56 <=1 
C31: x0+x58-y0_58 <=1 
C32: x0+x59-y0_59 <=1 
C33: x0+x61 <=1 
C34: x0+x62-y0_62 <=1 
C35: x0+x63-y0_63 <=1 
C36: x0+x64-y0_64 <=1 
C37: x1+x2-y1_2 <=1 
C38: x1+x3-y1_3 <=1 
C39: x1+x8 <=1 
C40: x1+x11 <=1 
C41: x1+x13-y1_13 <=1 
C42: x1+x14-y1_14 <=1 
C43: x1+x15 <=1 
C44: x1+x16 <=1 
C45: x1+x18 <=1 
C46: x1+x19-y1_19 <=1 
C47: x1+x20-y1_20 <=1 
C48: x1+x21-y1_21 <=1 
C49: x1+x22-y1_22 <=1 
C50: x1+x23-y1_23 <=1 
C51: x1+x25 <=1 
C52: x1+x28 <=1 
C53: x1+x29 <=1 
C54: x1+x30-y1_30 <=1 
C55: x1+x31 <=1 
C56: x1+x32 <=1 
C57: x1+x36-y1_36 <=1 
C58: x1+x37 <=1 
C59: x1+x39-y1_39 <=1 
C60: x1+x41-y1_41 <=1 
C61: x1+x42-y1_42 <=1 
C62: x1+x43-y1_43 <=1 
C63: x1+x44 <=1 
C64: x1+x45-y1_45 <=1 
C65: x1+x47-y1_47 <=1 
C66: x1+x48 <=1 
C67: x1+x49 <=1 
C68: x1+x50 <=1 
C69: x1+x52 <=1 
C70: x1+x53-y1_53 <=1 
C71: x1+x59 <=1 
C72: x1+x60 <=1 
C73: x1+x61-y1_61 <=1 
C74: x1+x62 <=1 
C75: x1+x63-y1_63 <=1 
C76: x1+x64-y1_64 <=1 
C77: x1+x65-y1_65 <=1 
C78: x2+x4 <=1 
C79: x2+x6 <=1 
C80: x2+x7-y2_7 <=1 
C81: x2+x8-y2_8 <=1 
C82: x2+x9-y2_9 <=1 
C83: x2+x10 <=1 
C84: x2+x11-y2_11 <=1 
C85: x2+x12-y2_12 <=1 
C86: x2+x13 <=1 
C87: x2+x15-y2_15 <=1 
C88: x2+x17 <=1 
C89: x2+x19 <=1 
C90: x2+x20-y2_20 <=1 
C91: x2+x21-y2_21 <=1 
C92: x2+x22-y2_22 <=1 
C93: x2+x23-y2_23 <=1 
C94: x2+x25 <=1 
C95: x2+x31 <=1 
C96: x2+x32 <=1 
C97: x2+x33 <=1 
C98: x2+x35-y2_35 <=1 
C99: x2+x36 <=1 
C100: x2+x38 <=1 
C101: x2+x39-y2_39 <=1 
C102: x2+x40 <=1 
C103: x2+x41-y2_41 <=1 
C104: x2+x43-y2_43 <=1 
C105: x2+x45-y2_45 <=1 
C106: x2+x46-y2_46 <=1 
C107: x2+x47 <=1 
C108: x2+x48 <=1 
C109: x2+x49-y2_49 <=1 
C110: x2+x50-y2_50 <=1 
C111: x2+x51 <=1 
C112: x2+x53-y2_53 <=1 
C113: x2+x55 <=1 
C114: x2+x56-y2_56 <=1 
C115: x2+x57-y2_57 <=1 
C116: x2+x58 <=1 
C117: x2+x60 <=1 
C118: x2+x62 <=1 
C119: x2+x63 <=1 
C120: x2+x65 <=1 
C121: x3+x4-y3_4 <=1 
C122: x3+x8 <=1 
C123: x3+x9-y3_9 <=1 
C124: x3+x11-y3_11 <=1 
C125: x3+x13-y3_13 <=1 
C126: x3+x16-y3_16 <=1 
C127: x3+x17-y3_17 <=1 
C128: x3+x18 <=1 
C129: x3+x20-y3_20 <=1 
C130: x3+x21 <=1 
C131: x3+x22-y3_22 <=1 
C132: x3+x23-y3_23 <=1 
C133: x3+x25-y3_25 <=1 
C134: x3+x26-y3_26 <=1 
C135: x3+x30 <=1 
C136: x3+x31 <=1 
C137: x3+x32-y3_32 <=1 
C138: x3+x33-y3_33 <=1 
C139: x3+x37 <=1 
C140: x3+x40-y3_40 <=1 
C141: x3+x41 <=1 
C142: x3+x42-y3_42 <=1 
C143: x3+x43 <=1 
C144: x3+x45-y3_45 <=1 
C145: x3+x46-y3_46 <=1 
C146: x3+x47-y3_47 <=1 
C147: x3+x49-y3_49 <=1 
C148: x3+x50-y3_50 <=1 
C149: x3+x51 <=1 
C150: x3+x52-y3_52 <=1 
C151: x3+x56 <=1 
C152: x3+x57 <=1 
C153: x3+x58 <=1 
C154: x3+x60 <=1 
C155: x3+x62 <=1 
C156: x3+x65-y3_65 <=1 
C157: x4+x6-y4_6 <=1 
C158: x4+x7-y4_7 <=1 
C159: x4+x8 <=1 
C160: x4+x9-y4_9 <=1 
C161: x4+x16-y4_16 <=1 
C162: x4+x17 <=1 
C163: x4+x18-y4_18 <=1 
C164: x4+x19 <=1 
C165: x4+x20-y4_20 <=1 
C166: x4+x21-y4_21 <=1 
C167: x4+x22 <=1 
C168: x4+x26-y4_26 <=1 
C169: x4+x31 <=1 
C170: x4+x32-y4_32 <=1 
C171: x4+x35-y4_35 <=1 
C172: x4+x36-y4_36 <=1 
C173: x4+x40-y4_40 <=1 
C174: x4+x41 <=1 
C175: x4+x46-y4_46 <=1 
C176: x4+x47-y4_47 <=1 
C177: x4+x48 <=1 
C178: x4+x50-y4_50 <=1 
C179: x4+x51 <=1 
C180: x4+x52 <=1 
C181: x4+x54-y4_54 <=1 
C182: x4+x55-y4_55 <=1 
C183: x4+x57-y4_57 <=1 
C184: x4+x58 <=1 
C185: x4+x60 <=1 
C186: x4+x61 <=1 
C187: x4+x62-y4_62 <=1 
C188: x4+x65 <=1 
C189: x5+x6 <=1 
C190: x5+x8-y5_8 <=1 
C191: x5+x9-y5_9 <=1 
C192: x5+x10 <=1 
C193: x5+x12 <=1 
C194: x5+x15 <=1 
C195: x5+x16-y5_16 <=1 
C196: x5+x17-y5_17 <=1 
C197: x5+x18 <=1 
C198: x5+x19-y5_19 <=1 
C199: x5+x20 <=1 
C200: x5+x22-y5_22 <=1 
C201: x5+x23 <=1 
C202: x5+x25 <=1 
C203: x5+x26 <=1 
C204: x5+x28-y5_28 <=1 
C205: x5+x30-y5_30 <=1 
C206: x5+x33 <=1 
C207: x5+x35-y5_35 <=1 
C208: x5+x37 <=1 
C209: x5+x38-y5_38 <=1 
C210: x5+x39-y5_39 <=1 
C211: x5+x40 <=1 
C212: x5+x42-y5_42 <=1 
C213: x5+x43-y5_43 <=1 
C214: x5+x44 <=1 
C215: x5+x47 <=1 
C216: x5+x48 <=1 
C217: x5+x49-y5_49 <=1 
C218: x5+x50-y5_50 <=1 
C219: x5+x51-y5_51 <=1 
C220: x5+x54-y5_54 <=1 
C221: x5+x55 <=1 
C222: x5+x56 <=1 
C223: x5+x57 <=1 
C224: x5+x58-y5_58 <=1 
C225: x5+x60 <=1 
C226: x5+x61 <=1 
C227: x5+x62-y5_62 <=1 
C228: x5+x63-y5_63 <=1 
C229: x5+x64-y5_64 <=1 
C230: x6+x7-y6_7 <=1 
C231: x6+x11 <=1 
C232: x6+x12-y6_12 <=1 
C233: x6+x13 <=1 
C234: x6+x14 <=1 
C235: x6+x16 <=1 
C236: x6+x17-y6_17 <=1 
C237: x6+x19-y6_19 <=1 
C238: x6+x20-y6_20 <=1 
C239: x6+x21-y6_21 <=1 
C240: x6+x22 <=1 
C241: x6+x23 <=1 
C242: x6+x25 <=1 
C243: x6+x31-y6_31 <=1 
C244: x6+x32-y6_32 <=1 
C245: x6+x33-y6_33 <=1 
C246: x6+x36 <=1 
C247: x6+x37 <=1 
C248: x6+x39 <=1 
C249: x6+x40-y6_40 <=1 
C250: x6+x41 <=1 
C251: x6+x42 <=1 
C252: x6+x44-y6_44 <=1 
C253: x6+x46 <=1 
C254: x6+x48-y6_48 <=1 
C255: x6+x50-y6_50 <=1 
C256: x6+x51-y6_51 <=1 
C257: x6+x53-y6_53 <=1 
C258: x6+x56 <=1 
C259: x6+x58 <=1 
C260: x6+x59 <=1 
C261: x6+x61 <=1 
C262: x6+x63 <=1 
C263: x6+x65 <=1 
C264: x7+x11-y7_11 <=1 
C265: x7+x12 <=1 
C266: x7+x14-y7_14 <=1 
C267: x7+x15-y7_15 <=1 
C268: x7+x20 <=1 
C269: x7+x21-y7_21 <=1 
C270: x7+x23-y7_23 <=1 
C271: x7+x24 <=1 
C272: x7+x26 <=1 
C273: x7+x28 <=1 
C274: x7+x29-y7_29 <=1 
C275: x7+x31 <=1 
C276: x7+x32 <=1 
C277: x7+x33 <=1 
C278: x7+x35 <=1 
C279: x7+x36-y7_36 <=1 
C280: x7+x37-y7_37 <=1 
C281: x7+x38 <=1 
C282: x7+x40 <=1 
C283: x7+x45-y7_45 <=1 
C284: x7+x47-y7_47 <=1 
C285: x7+x48 <=1 
C286: x7+x53 <=1 
C287: x7+x55 <=1 
C288: x7+x56 <=1 
C289: x7+x57-y7_57 <=1 
C290: x7+x58 <=1 
C291: x7+x59 <=1 
C292: x7+x61 <=1 
C293: x7+x63 <=1 
C294: x7+x65-y7_65 <=1 
C295: x8+x9-y8_9 <=1 
C296: x8+x10 <=1 
C297: x8+x12 <=1 
C298: x8+x15-y8_15 <=1 
C299: x8+x16-y8_16 <=1 
C300: x8+x17-y8_17 <=1 
C301: x8+x19 <=1 
C302: x8+x20-y8_20 <=1 
C303: x8+x23-y8_23 <=1 
C304: x8+x25 <=1 
C305: x8+x28-y8_28 <=1 
C306: x8+x30 <=1 
C307: x8+x32 <=1 
C308: x8+x34-y8_34 <=1 
C309: x8+x37-y8_37 <=1 
C310: x8+x38-y8_38 <=1 
C311: x8+x39 <=1 
C312: x8+x42 <=1 
C313: x8+x43-y8_43 <=1 
C314: x8+x44-y8_44 <=1 
C315: x8+x45 <=1 
C316: x8+x48-y8_48 <=1 
C317: x8+x49-y8_49 <=1 
C318: x8+x52-y8_52 <=1 
C319: x8+x53 <=1 
C320: x8+x54 <=1 
C321: x8+x56 <=1 
C322: x8+x58 <=1 
C323: x8+x59-y8_59 <=1 
C324: x8+x61 <=1 
C325: x8+x64-y8_64 <=1 
C326: x8+x65 <=1 
C327: x9+x10-y9_10 <=1 
C328: x9+x13-y9_13 <=1 
C329: x9+x15 <=1 
C330: x9+x16-y9_16 <=1 
C331: x9+x21-y9_21 <=1 
C332: x9+x24 <=1 
C333: x9+x25-y9_25 <=1 
C334: x9+x26-y9_26 <=1 
C335: x9+x27 <=1 
C336: x9+x28 <=1 
C337: x9+x29 <=1 
C338: x9+x31-y9_31 <=1 
C339: x9+x32 <=1 
C340: x9+x33 <=1 
C341: x9+x36-y9_36 <=1 
C342: x9+x37 <=1 
C343: x9+x39-y9_39 <=1 
C344: x9+x40 <=1 
C345: x9+x41-y9_41 <=1 
C346: x9+x47-y9_47 <=1 
C347: x9+x48-y9_48 <=1 
C348: x9+x49-y9_49 <=1 
C349: x9+x50 <=1 
C350: x9+x51-y9_51 <=1 
C351: x9+x53-y9_53 <=1 
C352: x9+x54-y9_54 <=1 
C353: x9+x55 <=1 
C354: x9+x56 <=1 
C355: x9+x58-y9_58 <=1 
C356: x9+x59-y9_59 <=1 
C357: x9+x60-y9_60 <=1 
C358: x9+x61-y9_61 <=1 
C359: x9+x62-y9_62 <=1 
C360: x9+x63 <=1 
C361: x9+x64 <=1 
C362: x9+x65-y9_65 <=1 
C363: x10+x11-y10_11 <=1 
C364: x10+x12-y10_12 <=1 
C365: x10+x13 <=1 
C366: x10+x14-y10_14 <=1 
C367: x10+x15 <=1 
C368: x10+x18 <=1 
C369: x10+x19 <=1 
C370: x10+x26-y10_26 <=1 
C371: x10+x28-y10_28 <=1 
C372: x10+x29-y10_29 <=1 
C373: x10+x31 <=1 
C374: x10+x32-y10_32 <=1 
C375: x10+x35 <=1 
C376: x10+x36 <=1 
C377: x10+x37 <=1 
C378: x10+x39-y10_39 <=1 
C379: x10+x40-y10_40 <=1 
C380: x10+x42-y10_42 <=1 
C381: x10+x43-y10_43 <=1 
C382: x10+x45 <=1 
C383: x10+x47-y10_47 <=1 
C384: x10+x51-y10_51 <=1 
C385: x10+x53 <=1 
C386: x10+x55-y10_55 <=1 
C387: x10+x57-y10_57 <=1 
C388: x10+x59-y10_59 <=1 
C389: x10+x60-y10_60 <=1 
C390: x10+x63 <=1 
C391: x10+x64 <=1 
C392: x11+x13-y11_13 <=1 
C393: x11+x15 <=1 
C394: x11+x16 <=1 
C395: x11+x17 <=1 
C396: x11+x18 <=1 
C397: x11+x19 <=1 
C398: x11+x20-y11_20 <=1 
C399: x11+x21 <=1 
C400: x11+x22-y11_22 <=1 
C401: x11+x23 <=1 
C402: x11+x24 <=1 
C403: x11+x25-y11_25 <=1 
C404: x11+x26-y11_26 <=1 
C405: x11+x28 <=1 
C406: x11+x30-y11_30 <=1 
C407: x11+x31 <=1 
C408: x11+x32 <=1 
C409: x11+x33 <=1 
C410: x11+x34 <=1 
C411: x11+x35-y11_35 <=1 
C412: x11+x36 <=1 
C413: x11+x37-y11_37 <=1 
C414: x11+x38 <=1 
C415: x11+x39-y11_39 <=1 
C416: x11+x40 <=1 
C417: x11+x42-y11_42 <=1 
C418: x11+x43-y11_43 <=1 
C419: x11+x46 <=1 
C420: x11+x47-y11_47 <=1 
C421: x11+x48 <=1 
C422: x11+x50 <=1 
C423: x11+x54-y11_54 <=1 
C424: x11+x55 <=1 
C425: x11+x56-y11_56 <=1 
C426: x11+x57 <=1 
C427: x11+x58 <=1 
C428: x11+x59-y11_59 <=1 
C429: x11+x63 <=1 
C430: x11+x65-y11_65 <=1 
C431: x12+x13 <=1 
C432: x12+x15 <=1 
C433: x12+x16 <=1 
C434: x12+x18 <=1 
C435: x12+x20 <=1 
C436: x12+x22-y12_22 <=1 
C437: x12+x23-y12_23 <=1 
C438: x12+x24 <=1 
C439: x12+x27 <=1 
C440: x12+x31 <=1 
C441: x12+x32 <=1 
C442: x12+x34 <=1 
C443: x12+x36 <=1 
C444: x12+x37 <=1 
C445: x12+x38-y12_38 <=1 
C446: x12+x41-y12_41 <=1 
C447: x12+x47 <=1 
C448: x12+x48-y12_48 <=1 
C449: x12+x50-y12_50 <=1 
C450: x12+x51 <=1 
C451: x12+x52-y12_52 <=1 
C452: x12+x53 <=1 
C453: x12+x54-y12_54 <=1 
C454: x12+x55-y12_55 <=1 
C455: x12+x56 <=1 
C456: x12+x57-y12_57 <=1 
C457: x12+x59-y12_59 <=1 
C458: x12+x60-y12_60 <=1 
C459: x12+x61 <=1 
C460: x12+x62-y12_62 <=1 
C461: x12+x63-y12_63 <=1 
C462: x13+x15-y13_15 <=1 
C463: x13+x16-y13_16 <=1 
C464: x13+x18 <=1 
C465: x13+x19-y13_19 <=1 
C466: x13+x21 <=1 
C467: x13+x22 <=1 
C468: x13+x23 <=1 
C469: x13+x26 <=1 
C470: x13+x27-y13_27 <=1 
C471: x13+x32 <=1 
C472: x13+x34-y13_34 <=1 
C473: x13+x35-y13_35 <=1 
C474: x13+x39 <=1 
C475: x13+x40 <=1 
C476: x13+x41 <=1 
C477: x13+x42 <=1 
C478: x13+x43-y13_43 <=1 
C479: x13+x44 <=1 
C480: x13+x45-y13_45 <=1 
C481: x13+x47-y13_47 <=1 
C482: x13+x48-y13_48 <=1 
C483: x13+x49-y13_49 <=1 
C484: x13+x50-y13_50 <=1 
C485: x13+x52 <=1 
C486: x13+x55-y13_55 <=1 
C487: x13+x56 <=1 
C488: x13+x57-y13_57 <=1 
C489: x13+x58 <=1 
C490: x13+x59 <=1 
C491: x13+x60 <=1 
C492: x13+x61-y13_61 <=1 
C493: x13+x62 <=1 
C494: x13+x65-y13_65 <=1 
C495: x14+x15 <=1 
C496: x14+x16 <=1 
C497: x14+x18-y14_18 <=1 
C498: x14+x20-y14_20 <=1 
C499: x14+x23 <=1 
C500: x14+x25 <=1 
C501: x14+x26-y14_26 <=1 
C502: x14+x28-y14_28 <=1 
C503: x14+x30 <=1 
C504: x14+x31 <=1 
C505: x14+x33-y14_33 <=1 
C506: x14+x34 <=1 
C507: x14+x38 <=1 
C508: x14+x40 <=1 
C509: x14+x41 <=1 
C510: x14+x42-y14_42 <=1 
C511: x14+x43 <=1 
C512: x14+x44-y14_44 <=1 
C513: x14+x47 <=1 
C514: x14+x48-y14_48 <=1 
C515: x14+x49 <=1 
C516: x14+x51-y14_51 <=1 
C517: x14+x54 <=1 
C518: x14+x57 <=1 
C519: x14+x59 <=1 
C520: x14+x61-y14_61 <=1 
C521: x14+x65-y14_65 <=1 
C522: x15+x16 <=1 
C523: x15+x17 <=1 
C524: x15+x21-y15_21 <=1 
C525: x15+x23-y15_23 <=1 
C526: x15+x25-y15_25 <=1 
C527: x15+x26 <=1 
C528: x15+x29 <=1 
C529: x15+x30 <=1 
C530: x15+x31-y15_31 <=1 
C531: x15+x32 <=1 
C532: x15+x35 <=1 
C533: x15+x38 <=1 
C534: x15+x41 <=1 
C535: x15+x43-y15_43 <=1 
C536: x15+x44 <=1 
C537: x15+x45 <=1 
C538: x15+x47-y15_47 <=1 
C539: x15+x49 <=1 
C540: x15+x51-y15_51 <=1 
C541: x15+x52-y15_52 <=1 
C542: x15+x53 <=1 
C543: x15+x54 <=1 
C544: x15+x55 <=1 
C545: x15+x57 <=1 
C546: x15+x58-y15_58 <=1 
C547: x15+x60-y15_60 <=1 
C548: x15+x61-y15_61 <=1 
C549: x15+x63 <=1 
C550: x15+x64 <=1 
C551: x16+x17 <=1 
C552: x16+x18 <=1 
C553: x16+x19-y16_19 <=1 
C554: x16+x20 <=1 
C555: x16+x21 <=1 
C556: x16+x25 <=1 
C557: x16+x26 <=1 
C558: x16+x29 <=1 
C559: x16+x31-y16_31 <=1 
C560: x16+x33 <=1 
C561: x16+x35 <=1 
C562: x16+x36-y16_36 <=1 
C563: x16+x37-y16_37 <=1 
C564: x16+x39 <=1 
C565: x16+x41 <=1 
C566: x16+x43 <=1 
C567: x16+x44-y16_44 <=1 
C568: x16+x47 <=1 
C569: x16+x48-y16_48 <=1 
C570: x16+x49-y16_49 <=1 
C571: x16+x50-y16_50 <=1 
C572: x16+x51 <=1 
C573: x16+x54 <=1 
C574: x16+x56-y16_56 <=1 
C575: x16+x57-y16_57 <=1 
C576: x16+x58 <=1 
C577: x16+x60 <=1 
C578: x16+x64-y16_64 <=1 
C579: x17+x18-y17_18 <=1 
C580: x17+x20 <=1 
C581: x17+x21 <=1 
C582: x17+x22 <=1 
C583: x17+x23 <=1 
C584: x17+x24 <=1 
C585: x17+x25-y17_25 <=1 
C586: x17+x26-y17_26 <=1 
C587: x17+x27-y17_27 <=1 
C588: x17+x29-y17_29 <=1 
C589: x17+x31-y17_31 <=1 
C590: x17+x32 <=1 
C591: x17+x33-y17_33 <=1 
C592: x17+x35-y17_35 <=1 
C593: x17+x36-y17_36 <=1 
C594: x17+x37-y17_37 <=1 
C595: x17+x38 <=1 
C596: x17+x39-y17_39 <=1 
C597: x17+x41-y17_41 <=1 
C598: x17+x43-y17_43 <=1 
C599: x17+x44-y17_44 <=1 
C600: x17+x45 <=1 
C601: x17+x47 <=1 
C602: x17+x48 <=1 
C603: x17+x50 <=1 
C604: x17+x51-y17_51 <=1 
C605: x17+x53-y17_53 <=1 
C606: x17+x54-y17_54 <=1 
C607: x17+x55-y17_55 <=1 
C608: x17+x56-y17_56 <=1 
C609: x17+x61 <=1 
C610: x17+x62 <=1 
C611: x18+x19-y18_19 <=1 
C612: x18+x21-y18_21 <=1 
C613: x18+x22 <=1 
C614: x18+x24 <=1 
C615: x18+x26 <=1 
C616: x18+x31 <=1 
C617: x18+x32 <=1 
C618: x18+x34 <=1 
C619: x18+x36 <=1 
C620: x18+x39 <=1 
C621: x18+x40 <=1 
C622: x18+x41-y18_41 <=1 
C623: x18+x42 <=1 
C624: x18+x44-y18_44 <=1 
C625: x18+x47-y18_47 <=1 
C626: x18+x48 <=1 
C627: x18+x51 <=1 
C628: x18+x52-y18_52 <=1 
C629: x18+x53-y18_53 <=1 
C630: x18+x54-y18_54 <=1 
C631: x18+x55 <=1 
C632: x18+x57 <=1 
C633: x18+x58-y18_58 <=1 
C634: x18+x60 <=1 
C635: x18+x61 <=1 
C636: x18+x62-y18_62 <=1 
C637: x18+x63 <=1 
C638: x18+x65-y18_65 <=1 
C639: x19+x20 <=1 
C640: x19+x21 <=1 
C641: x19+x23 <=1 
C642: x19+x26 <=1 
C643: x19+x28 <=1 
C644: x19+x29-y19_29 <=1 
C645: x19+x30 <=1 
C646: x19+x32-y19_32 <=1 
C647: x19+x36 <=1 
C648: x19+x37-y19_37 <=1 
C649: x19+x40 <=1 
C650: x19+x42-y19_42 <=1 
C651: x19+x44 <=1 
C652: x19+x45-y19_45 <=1 
C653: x19+x46-y19_46 <=1 
C654: x19+x47 <=1 
C655: x19+x50 <=1 
C656: x19+x51-y19_51 <=1 
C657: x19+x53-y19_53 <=1 
C658: x19+x55 <=1 
C659: x19+x60 <=1 
C660: x19+x64-y19_64 <=1 
C661: x19+x65 <=1 
C662: x20+x21-y20_21 <=1 
C663: x20+x22-y20_22 <=1 
C664: x20+x23-y20_23 <=1 
C665: x20+x25-y20_25 <=1 
C666: x20+x26-y20_26 <=1 
C667: x20+x27 <=1 
C668: x20+x29-y20_29 <=1 
C669: x20+x30-y20_30 <=1 
C670: x20+x31-y20_31 <=1 
C671: x20+x32-y20_32 <=1 
C672: x20+x33-y20_33 <=1 
C673: x20+x34-y20_34 <=1 
C674: x20+x35 <=1 
C675: x20+x36-y20_36 <=1 
C676: x20+x38 <=1 
C677: x20+x41-y20_41 <=1 
C678: x20+x42 <=1 
C679: x20+x43-y20_43 <=1 
C680: x20+x44-y20_44 <=1 
C681: x20+x46-y20_46 <=1 
C682: x20+x48-y20_48 <=1 
C683: x20+x49-y20_49 <=1 
C684: x20+x50-y20_50 <=1 
C685: x20+x53-y20_53 <=1 
C686: x20+x56-y20_56 <=1 
C687: x20+x57-y20_57 <=1 
C688: x20+x58 <=1 
C689: x20+x59-y20_59 <=1 
C690: x20+x62-y20_62 <=1 
C691: x20+x63 <=1 
C692: x20+x64 <=1 
C693: x20+x65-y20_65 <=1 
C694: x21+x22-y21_22 <=1 
C695: x21+x24-y21_24 <=1 
C696: x21+x28 <=1 
C697: x21+x29-y21_29 <=1 
C698: x21+x31 <=1 
C699: x21+x34 <=1 
C700: x21+x35 <=1 
C701: x21+x36-y21_36 <=1 
C702: x21+x37 <=1 
C703: x21+x38-y21_38 <=1 
C704: x21+x39-y21_39 <=1 
C705: x21+x40-y21_40 <=1 
C706: x21+x41-y21_41 <=1 
C707: x21+x42 <=1 
C708: x21+x43 <=1 
C709: x21+x44 <=1 
C710: x21+x46 <=1 
C711: x21+x48 <=1 
C712: x21+x49-y21_49 <=1 
C713: x21+x50-y21_50 <=1 
C714: x21+x52 <=1 
C715: x21+x53-y21_53 <=1 
C716: x21+x54-y21_54 <=1 
C717: x21+x56 <=1 
C718: x21+x57-y21_57 <=1 
C719: x21+x58 <=1 
C720: x21+x60 <=1 
C721: x21+x62 <=1 
C722: x21+x64-y21_64 <=1 
C723: x22+x23-y22_23 <=1 
C724: x22+x25 <=1 
C725: x22+x29 <=1 
C726: x22+x30 <=1 
C727: x22+x32 <=1 
C728: x22+x34 <=1 
C729: x22+x35 <=1 
C730: x22+x42 <=1 
C731: x22+x43-y22_43 <=1 
C732: x22+x46-y22_46 <=1 
C733: x22+x47 <=1 
C734: x22+x48-y22_48 <=1 
C735: x22+x49 <=1 
C736: x22+x50-y22_50 <=1 
C737: x22+x51-y22_51 <=1 
C738: x22+x54 <=1 
C739: x22+x56 <=1 
C740: x22+x57 <=1 
C741: x22+x58-y22_58 <=1 
C742: x22+x60 <=1 
C743: x22+x61 <=1 
C744: x22+x62 <=1 
C745: x22+x63 <=1 
C746: x22+x64 <=1 
C747: x22+x65 <=1 
C748: x23+x25-y23_25 <=1 
C749: x23+x26 <=1 
C750: x23+x27-y23_27 <=1 
C751: x23+x30-y23_30 <=1 
C752: x23+x31-y23_31 <=1 
C753: x23+x32-y23_32 <=1 
C754: x23+x33-y23_33 <=1 
C755: x23+x35-y23_35 <=1 
C756: x23+x38 <=1 
C757: x23+x40 <=1 
C758: x23+x41 <=1 
C759: x23+x42-y23_42 <=1 
C760: x23+x43-y23_43 <=1 
C761: x23+x45 <=1 
C762: x23+x50-y23_50 <=1 
C763: x23+x51 <=1 
C764: x23+x52 <=1 
C765: x23+x53 <=1 
C766: x23+x55 <=1 
C767: x23+x58 <=1 
C768: x23+x59-y23_59 <=1 
C769: x23+x60 <=1 
C770: x23+x62-y23_62 <=1 
C771: x23+x63 <=1 
C772: x23+x64 <=1 
C773: x23+x65-y23_65 <=1 
C774: x24+x25-y24_25 <=1 
C775: x24+x27-y24_27 <=1 
C776: x24+x28 <=1 
C777: x24+x30 <=1 
C778: x24+x31-y24_31 <=1 
C779: x24+x34-y24_34 <=1 
C780: x24+x35 <=1 
C781: x24+x37 <=1 
C782: x24+x39 <=1 
C783: x24+x40 <=1 
C784: x24+x41-y24_41 <=1 
C785: x24+x42 <=1 
C786: x24+x47-y24_47 <=1 
C787: x24+x48-y24_48 <=1 
C788: x24+x49 <=1 
C789: x24+x50 <=1 
C790: x24+x51 <=1 
C791: x24+x53-y24_53 <=1 
C792: x24+x54 <=1 
C793: x24+x55-y24_55 <=1 
C794: x24+x58-y24_58 <=1 
C795: x24+x59-y24_59 <=1 
C796: x24+x61-y24_61 <=1 
C797: x24+x62 <=1 
C798: x24+x63 <=1 
C799: x24+x64 <=1 
C800: x25+x26 <=1 
C801: x25+x29-y25_29 <=1 
C802: x25+x30-y25_30 <=1 
C803: x25+x31 <=1 
C804: x25+x32-y25_32 <=1 
C805: x25+x34 <=1 
C806: x25+x35 <=1 
C807: x25+x36-y25_36 <=1 
C808: x25+x38-y25_38 <=1 
C809: x25+x39 <=1 
C810: x25+x40-y25_40 <=1 
C811: x25+x41-y25_41 <=1 
C812: x25+x42-y25_42 <=1 
C813: x25+x43 <=1 
C814: x25+x44-y25_44 <=1 
C815: x25+x45 <=1 
C816: x25+x46 <=1 
C817: x25+x47-y25_47 <=1 
C818: x25+x49-y25_49 <=1 
C819: x25+x50-y25_50 <=1 
C820: x25+x51 <=1 
C821: x25+x52-y25_52 <=1 
C822: x25+x58 <=1 
C823: x25+x60-y25_60 <=1 
C824: x25+x61 <=1 
C825: x25+x62 <=1 
C826: x25+x63-y25_63 <=1 
C827: x26+x29 <=1 
C828: x26+x31-y26_31 <=1 
C829: x26+x32-y26_32 <=1 
C830: x26+x33 <=1 
C831: x26+x37-y26_37 <=1 
C832: x26+x38 <=1 
C833: x26+x39 <=1 
C834: x26+x41-y26_41 <=1 
C835: x26+x42 <=1 
C836: x26+x45-y26_45 <=1 
C837: x26+x46-y26_46 <=1 
C838: x26+x48 <=1 
C839: x26+x50 <=1 
C840: x26+x51 <=1 
C841: x26+x52-y26_52 <=1 
C842: x26+x53 <=1 
C843: x26+x54 <=1 
C844: x26+x55-y26_55 <=1 
C845: x26+x57-y26_57 <=1 
C846: x26+x59-y26_59 <=1 
C847: x26+x60-y26_60 <=1 
C848: x26+x61 <=1 
C849: x26+x63 <=1 
C850: x26+x65-y26_65 <=1 
C851: x27+x28-y27_28 <=1 
C852: x27+x30-y27_30 <=1 
C853: x27+x31 <=1 
C854: x27+x32-y27_32 <=1 
C855: x27+x33 <=1 
C856: x27+x34 <=1 
C857: x27+x36-y27_36 <=1 
C858: x27+x37 <=1 
C859: x27+x40 <=1 
C860: x27+x41-y27_41 <=1 
C861: x27+x43 <=1 
C862: x27+x44-y27_44 <=1 
C863: x27+x45 <=1 
C864: x27+x47-y27_47 <=1 
C865: x27+x49 <=1 
C866: x27+x50 <=1 
C867: x27+x51 <=1 
C868: x27+x53-y27_53 <=1 
C869: x27+x55-y27_55 <=1 
C870: x27+x56-y27_56 <=1 
C871: x27+x57 <=1 
C872: x27+x59 <=1 
C873: x27+x61 <=1 
C874: x27+x62-y27_62 <=1 
C875: x27+x65 <=1 
C876: x28+x30-y28_30 <=1 
C877: x28+x32 <=1 
C878: x28+x33-y28_33 <=1 
C879: x28+x36-y28_36 <=1 
C880: x28+x37 <=1 
C881: x28+x38 <=1 
C882: x28+x40-y28_40 <=1 
C883: x28+x42-y28_42 <=1 
C884: x28+x43-y28_43 <=1 
C885: x28+x46-y28_46 <=1 
C886: x28+x47 <=1 
C887: x28+x48 <=1 
C888: x28+x49-y28_49 <=1 
C889: x28+x50 <=1 
C890: x28+x51 <=1 
C891: x28+x52-y28_52 <=1 
C892: x28+x56 <=1 
C893: x28+x57 <=1 
C894: x28+x59-y28_59 <=1 
C895: x28+x60 <=1 
C896: x28+x61-y28_61 <=1 
C897: x28+x64-y28_64 <=1 
C898: x29+x30 <=1 
C899: x29+x34 <=1 
C900: x29+x35-y29_35 <=1 
C901: x29+x39 <=1 
C902: x29+x41-y29_41 <=1 
C903: x29+x43 <=1 
C904: x29+x44 <=1 
C905: x29+x45-y29_45 <=1 
C906: x29+x46-y29_46 <=1 
C907: x29+x49-y29_49 <=1 
C908: x29+x51 <=1 
C909: x29+x53 <=1 
C910: x29+x54-y29_54 <=1 
C911: x29+x55-y29_55 <=1 
C912: x29+x56 <=1 
C913: x29+x57-y29_57 <=1 
C914: x29+x58-y29_58 <=1 
C915: x29+x59 <=1 
C916: x29+x60-y29_60 <=1 
C917: x29+x61 <=1 
C918: x29+x62 <=1 
C919: x29+x63-y29_63 <=1 
C920: x29+x64-y29_64 <=1 
C921: x30+x31-y30_31 <=1 
C922: x30+x35-y30_35 <=1 
C923: x30+x37-y30_37 <=1 
C924: x30+x38 <=1 
C925: x30+x40 <=1 
C926: x30+x41 <=1 
C927: x30+x42-y30_42 <=1 
C928: x30+x45-y30_45 <=1 
C929: x30+x48 <=1 
C930: x30+x51 <=1 
C931: x30+x52-y30_52 <=1 
C932: x30+x54 <=1 
C933: x30+x55-y30_55 <=1 
C934: x30+x56 <=1 
C935: x30+x58-y30_58 <=1 
C936: x30+x59 <=1 
C937: x30+x60-y30_60 <=1 
C938: x30+x61-y30_61 <=1 
C939: x30+x62-y30_62 <=1 
C940: x30+x63 <=1 
C941: x30+x65 <=1 
C942: x31+x32 <=1 
C943: x31+x34-y31_34 <=1 
C944: x31+x35 <=1 
C945: x31+x38-y31_38 <=1 
C946: x31+x39-y31_39 <=1 
C947: x31+x40 <=1 
C948: x31+x42 <=1 
C949: x31+x43-y31_43 <=1 
C950: x31+x44-y31_44 <=1 
C951: x31+x47-y31_47 <=1 
C952: x31+x48-y31_48 <=1 
C953: x31+x49 <=1 
C954: x31+x50 <=1 
C955: x31+x51 <=1 
C956: x31+x52-y31_52 <=1 
C957: x31+x62 <=1 
C958: x31+x63-y31_63 <=1 
C959: x31+x64-y31_64 <=1 
C960: x32+x34-y32_34 <=1 
C961: x32+x35 <=1 
C962: x32+x36-y32_36 <=1 
C963: x32+x38 <=1 
C964: x32+x40 <=1 
C965: x32+x41 <=1 
C966: x32+x43-y32_43 <=1 
C967: x32+x44 <=1 
C968: x32+x47 <=1 
C969: x32+x48 <=1 
C970: x32+x49-y32_49 <=1 
C971: x32+x53-y32_53 <=1 
C972: x32+x55 <=1 
C973: x32+x58-y32_58 <=1 
C974: x32+x61-y32_61 <=1 
C975: x32+x62-y32_62 <=1 
C976: x32+x63 <=1 
C977: x32+x64-y32_64 <=1 
C978: x32+x65 <=1 
C979: x33+x36-y33_36 <=1 
C980: x33+x38 <=1 
C981: x33+x39-y33_39 <=1 
C982: x33+x40-y33_40 <=1 
C983: x33+x41-y33_41 <=1 
C984: x33+x42 <=1 
C985: x33+x43 <=1 
C986: x33+x45-y33_45 <=1 
C987: x33+x47-y33_47 <=1 
C988: x33+x48 <=1 
C989: x33+x50-y33_50 <=1 
C990: x33+x51 <=1 
C991: x33+x52-y33_52 <=1 
C992: x33+x54 <=1 
C993: x33+x58-y33_58 <=1 
C994: x33+x59-y33_59 <=1 
C995: x33+x60 <=1 
C996: x33+x61 <=1 
C997: x33+x63 <=1 
C998: x34+x35-y34_35 <=1 
C999: x34+x36 <=1 
C1000: x34+x40-y34_40 <=1 
C1001: x34+x41-y34_41 <=1 
C1002: x34+x44 <=1 
C1003: x34+x46-y34_46 <=1 
C1004: x34+x47-y34_47 <=1 
C1005: x34+x48-y34_48 <=1 
C1006: x34+x50-y34_50 <=1 
C1007: x34+x52 <=1 
C1008: x34+x53 <=1 
C1009: x34+x57 <=1 
C1010: x34+x58 <=1 
C1011: x34+x59-y34_59 <=1 
C1012: x34+x60-y34_60 <=1 
C1013: x34+x63 <=1 
C1014: x34+x64 <=1 
C1015: x34+x65 <=1 
C1016: x35+x36-y35_36 <=1 
C1017: x35+x37 <=1 
C1018: x35+x38-y35_38 <=1 
C1019: x35+x39-y35_39 <=1 
C1020: x35+x40 <=1 
C1021: x35+x41-y35_41 <=1 
C1022: x35+x43 <=1 
C1023: x35+x44 <=1 
C1024: x35+x46 <=1 
C1025: x35+x48 <=1 
C1026: x35+x49 <=1 
C1027: x35+x50 <=1 
C1028: x35+x52-y35_52 <=1 
C1029: x35+x54-y35_54 <=1 
C1030: x35+x55 <=1 
C1031: x35+x56-y35_56 <=1 
C1032: x35+x57 <=1 
C1033: x35+x58-y35_58 <=1 
C1034: x35+x59 <=1 
C1035: x35+x60 <=1 
C1036: x35+x61-y35_61 <=1 
C1037: x35+x62-y35_62 <=1 
C1038: x35+x63 <=1 
C1039: x36+x37 <=1 
C1040: x36+x38 <=1 
C1041: x36+x39-y36_39 <=1 
C1042: x36+x40 <=1 
C1043: x36+x41 <=1 
C1044: x36+x42 <=1 
C1045: x36+x43-y36_43 <=1 
C1046: x36+x44 <=1 
C1047: x36+x45 <=1 
C1048: x36+x46-y36_46 <=1 
C1049: x36+x47-y36_47 <=1 
C1050: x36+x49 <=1 
C1051: x36+x53-y36_53 <=1 
C1052: x36+x59-y36_59 <=1 
C1053: x36+x63 <=1 
C1054: x36+x64-y36_64 <=1 
C1055: x36+x65-y36_65 <=1 
C1056: x37+x38 <=1 
C1057: x37+x40-y37_40 <=1 
C1058: x37+x43-y37_43 <=1 
C1059: x37+x45-y37_45 <=1 
C1060: x37+x46-y37_46 <=1 
C1061: x37+x48 <=1 
C1062: x37+x50-y37_50 <=1 
C1063: x37+x51-y37_51 <=1 
C1064: x37+x53-y37_53 <=1 
C1065: x37+x54 <=1 
C1066: x37+x55-y37_55 <=1 
C1067: x37+x57 <=1 
C1068: x37+x62 <=1 
C1069: x37+x63-y37_63 <=1 
C1070: x37+x64 <=1 
C1071: x37+x65-y37_65 <=1 
C1072: x38+x40-y38_40 <=1 
C1073: x38+x41-y38_41 <=1 
C1074: x38+x42 <=1 
C1075: x38+x45-y38_45 <=1 
C1076: x38+x46 <=1 
C1077: x38+x50 <=1 
C1078: x38+x51 <=1 
C1079: x38+x53-y38_53 <=1 
C1080: x38+x54-y38_54 <=1 
C1081: x38+x56 <=1 
C1082: x38+x57 <=1 
C1083: x38+x58-y38_58 <=1 
C1084: x38+x59 <=1 
C1085: x38+x60-y38_60 <=1 
C1086: x38+x63 <=1 
C1087: x39+x40-y39_40 <=1 
C1088: x39+x42-y39_42 <=1 
C1089: x39+x43-y39_43 <=1 
C1090: x39+x45-y39_45 <=1 
C1091: x39+x47 <=1 
C1092: x39+x48 <=1 
C1093: x39+x50-y39_50 <=1 
C1094: x39+x52-y39_52 <=1 
C1095: x39+x53 <=1 
C1096: x39+x54-y39_54 <=1 
C1097: x39+x56 <=1 
C1098: x39+x57-y39_57 <=1 
C1099: x39+x59 <=1 
C1100: x39+x60 <=1 
C1101: x39+x61 <=1 
C1102: x39+x63 <=1 
C1103: x40+x42-y40_42 <=1 
C1104: x40+x43 <=1 
C1105: x40+x44 <=1 
C1106: x40+x45 <=1 
C1107: x40+x47-y40_47 <=1 
C1108: x40+x48 <=1 
C1109: x40+x50-y40_50 <=1 
C1110: x40+x53-y40_53 <=1 
C1111: x40+x55-y40_55 <=1 
C1112: x40+x56 <=1 
C1113: x40+x57-y40_57 <=1 
C1114: x40+x59-y40_59 <=1 
C1115: x40+x61 <=1 
C1116: x40+x62 <=1 
C1117: x40+x64-y40_64 <=1 
C1118: x40+x65-y40_65 <=1 
C1119: x41+x42 <=1 
C1120: x41+x43-y41_43 <=1 
C1121: x41+x46 <=1 
C1122: x41+x47-y41_47 <=1 
C1123: x41+x48 <=1 
C1124: x41+x50 <=1 
C1125: x41+x51 <=1 
C1126: x41+x52-y41_52 <=1 
C1127: x41+x53 <=1 
C1128: x41+x55 <=1 
C1129: x41+x56 <=1 
C1130: x41+x57-y41_57 <=1 
C1131: x41+x59-y41_59 <=1 
C1132: x41+x60-y41_60 <=1 
C1133: x41+x61 <=1 
C1134: x41+x62-y41_62 <=1 
C1135: x41+x63 <=1 
C1136: x41+x64-y41_64 <=1 
C1137: x41+x65-y41_65 <=1 
C1138: x42+x44 <=1 
C1139: x42+x45 <=1 
C1140: x42+x46 <=1 
C1141: x42+x47-y42_47 <=1 
C1142: x42+x49 <=1 
C1143: x42+x50 <=1 
C1144: x42+x58-y42_58 <=1 
C1145: x42+x59-y42_59 <=1 
C1146: x42+x65-y42_65 <=1 
C1147: x43+x45-y43_45 <=1 
C1148: x43+x46 <=1 
C1149: x43+x49 <=1 
C1150: x43+x50-y43_50 <=1 
C1151: x43+x52 <=1 
C1152: x43+x53-y43_53 <=1 
C1153: x43+x54-y43_54 <=1 
C1154: x43+x55-y43_55 <=1 
C1155: x43+x56 <=1 
C1156: x43+x57-y43_57 <=1 
C1157: x43+x58 <=1 
C1158: x43+x60 <=1 
C1159: x43+x61 <=1 
C1160: x43+x62-y43_62 <=1 
C1161: x43+x64-y43_64 <=1 
C1162: x44+x47 <=1 
C1163: x44+x48 <=1 
C1164: x44+x51 <=1 
C1165: x44+x52 <=1 
C1166: x44+x53-y44_53 <=1 
C1167: x44+x55-y44_55 <=1 
C1168: x44+x56-y44_56 <=1 
C1169: x44+x58-y44_58 <=1 
C1170: x44+x61-y44_61 <=1 
C1171: x44+x64-y44_64 <=1 
C1172: x44+x65-y44_65 <=1 
C1173: x45+x48-y45_48 <=1 
C1174: x45+x50-y45_50 <=1 
C1175: x45+x52-y45_52 <=1 
C1176: x45+x55 <=1 
C1177: x45+x56 <=1 
C1178: x45+x57 <=1 
C1179: x45+x58 <=1 
C1180: x45+x59-y45_59 <=1 
C1181: x45+x61-y45_61 <=1 
C1182: x45+x62-y45_62 <=1 
C1183: x45+x63 <=1 
C1184: x45+x64 <=1 
C1185: x45+x65 <=1 
C1186: x46+x48-y46_48 <=1 
C1187: x46+x49 <=1 
C1188: x46+x50-y46_50 <=1 
C1189: x46+x52-y46_52 <=1 
C1190: x46+x53-y46_53 <=1 
C1191: x46+x54 <=1 
C1192: x46+x56 <=1 
C1193: x46+x57 <=1 
C1194: x46+x63-y46_63 <=1 
C1195: x46+x64 <=1 
C1196: x46+x65-y46_65 <=1 
C1197: x47+x48 <=1 
C1198: x47+x50-y47_50 <=1 
C1199: x47+x51 <=1 
C1200: x47+x53-y47_53 <=1 
C1201: x47+x55 <=1 
C1202: x47+x56 <=1 
C1203: x47+x58 <=1 
C1204: x47+x61-y47_61 <=1 
C1205: x47+x62-y47_62 <=1 
C1206: x47+x64 <=1 
C1207: x47+x65-y47_65 <=1 
C1208: x48+x49 <=1 
C1209: x48+x51-y48_51 <=1 
C1210: x48+x52 <=1 
C1211: x48+x53 <=1 
C1212: x48+x54 <=1 
C1213: x48+x55 <=1 
C1214: x48+x58 <=1 
C1215: x48+x59 <=1 
C1216: x48+x61 <=1 
C1217: x48+x62-y48_62 <=1 
C1218: x49+x50-y49_50 <=1 
C1219: x49+x51 <=1 
C1220: x49+x52 <=1 
C1221: x49+x55-y49_55 <=1 
C1222: x49+x56-y49_56 <=1 
C1223: x49+x57-y49_57 <=1 
C1224: x49+x59 <=1 
C1225: x49+x60-y49_60 <=1 
C1226: x49+x61 <=1 
C1227: x49+x62 <=1 
C1228: x49+x63 <=1 
C1229: x49+x64-y49_64 <=1 
C1230: x49+x65 <=1 
C1231: x50+x51-y50_51 <=1 
C1232: x50+x52-y50_52 <=1 
C1233: x50+x55 <=1 
C1234: x50+x57 <=1 
C1235: x50+x58-y50_58 <=1 
C1236: x50+x59-y50_59 <=1 
C1237: x50+x60-y50_60 <=1 
C1238: x50+x62-y50_62 <=1 
C1239: x50+x64-y50_64 <=1 
C1240: x50+x65 <=1 
C1241: x51+x53 <=1 
C1242: x51+x55-y51_55 <=1 
C1243: x51+x57-y51_57 <=1 
C1244: x51+x58 <=1 
C1245: x51+x60 <=1 
C1246: x51+x61 <=1 
C1247: x51+x63-y51_63 <=1 
C1248: x51+x64-y51_64 <=1 
C1249: x51+x65-y51_65 <=1 
C1250: x52+x53-y52_53 <=1 
C1251: x52+x54 <=1 
C1252: x52+x55 <=1 
C1253: x52+x56 <=1 
C1254: x52+x57 <=1 
C1255: x52+x58-y52_58 <=1 
C1256: x52+x62 <=1 
C1257: x52+x64-y52_64 <=1 
C1258: x52+x65-y52_65 <=1 
C1259: x53+x54-y53_54 <=1 
C1260: x53+x55-y53_55 <=1 
C1261: x53+x57 <=1 
C1262: x53+x58-y53_58 <=1 
C1263: x53+x59 <=1 
C1264: x53+x60 <=1 
C1265: x53+x61 <=1 
C1266: x53+x64 <=1 
C1267: x54+x56-y54_56 <=1 
C1268: x54+x58 <=1 
C1269: x54+x60-y54_60 <=1 
C1270: x54+x61-y54_61 <=1 
C1271: x54+x62 <=1 
C1272: x54+x65 <=1 
C1273: x55+x56 <=1 
C1274: x55+x58 <=1 
C1275: x55+x59-y55_59 <=1 
C1276: x55+x62-y55_62 <=1 
C1277: x55+x63-y55_63 <=1 
C1278: x55+x64 <=1 
C1279: x55+x65 <=1 
C1280: x56+x57-y56_57 <=1 
C1281: x56+x58-y56_58 <=1 
C1282: x56+x60-y56_60 <=1 
C1283: x56+x61-y56_61 <=1 
C1284: x56+x64 <=1 
C1285: x56+x65-y56_65 <=1 
C1286: x57+x58-y57_58 <=1 
C1287: x57+x59 <=1 
C1288: x57+x63-y57_63 <=1 
C1289: x57+x64-y57_64 <=1 
C1290: x57+x65 <=1 
C1291: x58+x59 <=1 
C1292: x58+x64-y58_64 <=1 
C1293: x59+x60-y59_60 <=1 
C1294: x59+x64 <=1 
C1295: x60+x61-y60_61 <=1 
C1296: x60+x63 <=1 
C1297: x60+x64-y60_64 <=1 
C1298: x60+x65-y60_65 <=1 
C1299: x61+x62 <=1 
C1300: x62+x64-y62_64 <=1 
C1301: x62+x65 <=1 
C1302: x63+x65 <=1 

binary
x0
x1
x2
x3
x4
x5
x6
x7
x8
x9
x10
x11
x12
x13
x14
x15
x16
x17
x18
x19
x20
x21
x22
x23
x24
x25
x26
x27
x28
x29
x30
x31
x32
x33
x34
x35
x36
x37
x38
x39
x40
x41
x42
x43
x44
x45
x46
x47
x48
x49
x50
x51
x52
x53
x54
x55
x56
x57
x58
x59
x60
x61
x62
x63
x64
x65
