problem_generation/data/GISP/train/er_n=66_m=1302_p=0.60_SET2_setparam=100.00_alpha=0.50_479.sol
objective value:                                 1175
x1                                                  1 	(obj:100)
x5                                                  1 	(obj:100)
x7                                                  1 	(obj:100)
x9                                                  1 	(obj:100)
x17                                                 1 	(obj:100)
x19                                                 1 	(obj:100)
x34                                                 1 	(obj:100)
x39                                                 1 	(obj:100)
x42                                                 1 	(obj:100)
x43                                                 1 	(obj:100)
x51                                                 1 	(obj:100)
x54                                                 1 	(obj:100)
y17_39                                              1 	(obj:-1)
y17_43                                              1 	(obj:-1)
y9_39                                               1 	(obj:-1)
y43_54                                              1 	(obj:-1)
y5_54                                               1 	(obj:-1)
y39_43                                              1 	(obj:-1)
y1_43                                               1 	(obj:-1)
y5_17                                               1 	(obj:-1)
y39_42                                              1 	(obj:-1)
y1_42                                               1 	(obj:-1)
y5_39                                               1 	(obj:-1)
y1_19                                               1 	(obj:-1)
y17_51                                              1 	(obj:-1)
y9_51                                               1 	(obj:-1)
y5_43                                               1 	(obj:-1)
y17_54                                              1 	(obj:-1)
y9_54                                               1 	(obj:-1)
y39_54                                              1 	(obj:-1)
y5_42                                               1 	(obj:-1)
y5_51                                               1 	(obj:-1)
y5_19                                               1 	(obj:-1)
y1_39                                               1 	(obj:-1)
y5_9                                                1 	(obj:-1)
y19_42                                              1 	(obj:-1)
y19_51                                              1 	(obj:-1)
